5
4
20
1 1.3 1.55 1.75 2.1
42 41 25 41 34 16 21 12 19 18 13 35 10 22 19 6 20 41 7 41 30 48 7 48 32 15 15 42 30 9 29 48 18 17 36 11 14 38 41 32 44 40 36 17 25 20 38 48 9 10 47 46 19 31 16 34 41 49 39 28 12 20 33 15 30 33 32 10 18 22 30 6 19 35 47 19 35 21 46 9 